RAW/CMTX/fspd/CMT13X.vrp_seed-8.out
1543.793887	23.941	23.955
