RAW/CMTX/fspd/CMT13X.vrp_seed-8.sol
Route #1: 20 23 28 27 24 22 25 19 16 17
Route #2: 29 36 34 33 30 31 35 32 26 21
Route #3: 68 76 77 79 80 78 72 75 74 71 73
Route #4: 105 106 107 104 103 116 100 99 101 102
Route #5: 120 70 69 67 98 110 115 97 94 93 96 95
Route #6: 39 42 45 43 40 59 57 54 53 52
Route #7: 119 81 2 1 3 4 5 6 109 114 90 91
Route #8: 37 44 46 49 50 51 48 47 41 38
Route #9: 55 58 56 60 63 66 64 62 61 65
Route #10: 88 82 111 86 112 117 83 113 84 85 89 92 87
Route #11: 7 9 10 11 15 14 13 12 8 108 118 18
Cost 1543.793887